(set-info :smt-lib-version 2.6)
(set-logic QF_BV)
(set-info :source |
 Patrice Godefroid, SAGE (systematic dynamic test generation)
 For more information: http://research.microsoft.com/en-us/um/people/pg/public_psfiles/ndss2008.pdf
|)
(set-info :category "industrial")
(set-info :status sat)
(declare-fun T1_8228 () (_ BitVec 8))
(declare-fun T1_8224 () (_ BitVec 8))
(declare-fun T2_7832 () (_ BitVec 16))
(declare-fun T1_7823 () (_ BitVec 8))
(declare-fun T2_8226 () (_ BitVec 16))
(declare-fun T1_8248 () (_ BitVec 8))
(declare-fun T1_8266 () (_ BitVec 8))
(declare-fun T1_8281 () (_ BitVec 8))
(declare-fun T4_7824 () (_ BitVec 32))
(declare-fun T1_8299 () (_ BitVec 8))
(declare-fun T1_8226 () (_ BitVec 8))
(declare-fun T1_8227 () (_ BitVec 8))
(declare-fun T1_7832 () (_ BitVec 8))
(declare-fun T1_7833 () (_ BitVec 8))
(declare-fun T1_7824 () (_ BitVec 8))
(declare-fun T1_7825 () (_ BitVec 8))
(declare-fun T1_7826 () (_ BitVec 8))
(declare-fun T1_7827 () (_ BitVec 8))
(assert (let ((?v_5 ((_ zero_extend 24) T1_8228)) (?v_16 ((_ zero_extend 24) T1_8224)) (?v_3 ((_ zero_extend 16) T2_7832)) (?v_1 ((_ zero_extend 24) T1_7823))) (let ((?v_4 (bvsub ?v_1 (_ bv8 32)))) (let ((?v_10 (bvadd (bvadd (bvadd (bvadd ?v_4 (_ bv4263047 32)) ?v_3) (_ bv7 32)) ?v_16))) (let ((?v_0 (bvsub (bvadd (bvadd ?v_10 (_ bv3 32)) ?v_5) (_ bv4263015 32)))) (let ((?v_21 (bvadd ?v_0 (_ bv4263016 32))) (?v_15 ((_ zero_extend 16) T2_8226))) (let ((?v_19 (bvadd ?v_15 (bvsub (_ bv4294967295 32) ?v_5))) (?v_6 ((_ zero_extend 24) T1_8248)) (?v_11 (bvsub ?v_10 (_ bv4263013 32)))) (let ((?v_20 (bvadd ?v_11 (_ bv4263016 32))) (?v_18 (bvadd ?v_19 (bvsub (_ bv4294967295 32) ?v_6))) (?v_17 ((_ zero_extend 24) T1_8266))) (let ((?v_12 (bvsub (bvadd ?v_20 ?v_5) (_ bv1 32))) (?v_14 (bvadd ?v_11 (_ bv4263034 32))) (?v_13 (bvadd ?v_11 (_ bv4263035 32))) (?v_9 (bvadd ?v_18 (bvsub (_ bv4294967295 32) ?v_17))) (?v_8 ((_ zero_extend 24) T1_8281))) (let ((?v_7 (bvadd ?v_9 (bvsub (_ bv4294967295 32) ?v_8))) (?v_2 (bvadd ?v_1 (_ bv1 32)))) (and true (= T4_7824 (bvor (bvshl (bvor (bvshl (bvor (bvshl ((_ zero_extend 24) T1_7827) (_ bv8 32)) ((_ zero_extend 24) T1_7826)) (_ bv8 32)) ((_ zero_extend 24) T1_7825)) (_ bv8 32)) ((_ zero_extend 24) T1_7824))) (= T2_7832 (bvor (bvshl ((_ zero_extend 8) T1_7833) (_ bv8 16)) ((_ zero_extend 8) T1_7832))) (= T2_8226 (bvor (bvshl ((_ zero_extend 8) T1_8227) (_ bv8 16)) ((_ zero_extend 8) T1_8226))) (bvult (bvadd ?v_0 (_ bv4263032 32)) (bvsub (bvadd ?v_21 ?v_6) (_ bv1 32))) (bvule (bvadd (bvadd ?v_2 (_ bv4263036 32)) (_ bv2 32)) (_ bv4263862 32)) (bvule (bvadd (bvadd (bvadd (bvadd ?v_2 (_ bv4263038 32)) ?v_3) (_ bv6 32)) (_ bv1 32)) (_ bv4263862 32)) (not (= (bvadd (bvadd ?v_4 (_ bv31 32)) (_ bv4263016 32)) (_ bv0 32))) (bvule (_ bv8 32) ?v_1) (not (= ?v_1 (_ bv1 32))) (bvule ?v_4 (_ bv0 32)) (= (bvadd ?v_7 (bvsub (_ bv4294967295 32) ((_ zero_extend 24) T1_8299))) (_ bv0 32)) (bvult (_ bv0 32) ?v_3) (not (= ?v_3 (_ bv0 32))) (= T4_7824 ?v_3) (not (= ?v_7 (_ bv0 32))) (bvule (bvadd ?v_8 (_ bv1 32)) ?v_9) (not (= ?v_9 (_ bv0 32))) (not (= ?v_13 ?v_12)) (bvule ?v_12 ?v_13) (= ?v_14 ?v_12) (bvule ?v_12 ?v_14) (bvult (bvadd ?v_11 (_ bv4263030 32)) ?v_12) (not (= ?v_15 (_ bv0 32))) (bvult ?v_16 (_ bv8 32)) (not (= ?v_16 (_ bv0 32))) (= ?v_16 (_ bv1 32)) (bvule (bvadd ?v_17 (_ bv1 32)) ?v_18) (not (= ?v_18 (_ bv0 32))) (not (= ?v_19 (_ bv0 32))) (not (= ?v_20 (_ bv0 32))) (bvule (bvadd ?v_5 (_ bv1 32)) ?v_15) (bvule (bvadd ?v_6 (_ bv1 32)) ?v_19) (not (= ?v_21 (_ bv0 32))))))))))))))
(check-sat)
(exit)
